N = 14;
H = 5;
T = 2;

avail = array3d(1..N, 1..H, 1..T, [1, 8, 2, 3, 1, 7, 6, 10, 8, 3, 9, 1, 4, 2, 2, 6, 8, 1, 4, 8, 4, 1, 2, 1, 1, 9, 8, 8, 4, 6, 8, 8, 3, 4, 7, 4, 5, 5, 4, 9, 10, 9, 8, 6, 9, 0, 5, 2, 6, 1, 5, 9, 8, 0, 8, 5, 4, 7, 3, 9, 6, 1, 5, 9, 1, 8, 6, 6, 1, 6, 6, 1, 0, 0, 7, 2, 7, 5, 7, 9, 1, 0, 5, 5, 7, 7, 0, 0, 5, 1, 5, 1, 0, 6, 7, 8, 1, 1, 2, 1, 2, 10, 9, 9, 2, 4, 6, 1, 5, 10, 7, 1, 1, 7, 10, 3, 8, 5, 0, 0, 4, 1, 6, 1, 10, 9, 10, 2, 6, 1, 2, 4, 1, 8, 6, 10, 8, 4, 8, 10]);

r = array2d(1..H, 1..T, [5, 1, 4, 6, 5, 3, 1, 5, 6, 2]);
